NAME          simpleCube
*   Maximum: 60000 
*   Minimum: 0

ROWS
 L  0
 L  1
 L  2
 N  c
COLUMNS
    x0        0         1.             c         -150.
    x1        1         1.             c         -100.
    x2        2         1.             c         -50.
RHS
    b         0         200.           1         200.
    b         2         200.
ENDATA
 